--- Job 1_8.gms Start 11/28/19 04:38:59 28.2.0 r750fa45 DEX-DEG x86 64bit/Mac OS X
--- GAMS Parameters defined
    Input /Users/yuesongyang/Desktop/Finance/Project/1_8.gms
    PageSize 0
    ScrDir /Users/yuesongyang/Desktop/Finance/Project/225c/
    SysDir /Applications/GAMS28.2/sysdir/
    LogOption 3
    ErrMsg 1
    ErrorLog 99
    IDE 1
    LstTitleLeftAligned 1
GAMS 28.2.0   Copyright (C) 1987-2019 GAMS Development. All rights reserved
Licensee: Course License Fall 2019                       G190805/0001AO-GEN
          Technical University of Denmark, Management Engineering    DCE146
          License for teaching and research at degree granting institutions
          License Admin: Thomas Stidsen, thst@man.dtu.dk                   
--- Starting compilation
--- 1_8.gms(17) 2 Mb
--- GDXin=/Users/yuesongyang/Desktop/Finance/Project/FixedScenarios.gdx
--- 1_8.gms(121) 4 Mb
--- Starting execution: elapsed 0:00:00.010
--- 1_8.gms(116) 7 Mb
--- Generating LP model CVaRModel
--- 1_8.gms(117) 11 Mb
---   506 rows  684 columns  46,618 non-zeroes
--- Executing CPLEX: elapsed 0:00:00.077

IBM ILOG CPLEX   28.2.0 r750fa45 Released Aug 19, 2019 DEG x86 64bit/Mac OS X 
--- GAMS/Cplex licensed for continuous and discrete problems.
Cplex 12.9.0.0

Reading data...
Starting Cplex...
Space for names approximately 0.03 Mb
Use option 'names no' to turn use of names off
CPXPARAM_Advance                                 0
CPXPARAM_Threads                                 1
CPXPARAM_Parallel                                1
CPXPARAM_Simplex_Limits_Iterations               2000000000
CPXPARAM_TimeLimit                               120
CPXPARAM_Tune_TimeLimit                          24
Tried aggregator 1 time.
LP Presolve eliminated 255 rows and 432 columns.
Reduced LP has 251 rows, 252 columns, and 752 nonzeros.
Presolve time = 0.01 sec. (2.80 ticks)
Initializing dual steep norms . . .

Iteration log . . .
Iteration:     1   Scaled dual infeas =             0.919079
Iteration:    14   Dual objective     =        100480.738583
LP status(1): optimal
Cplex Time: 0.02sec (det. 4.40 ticks)

Optimal solution found.
Objective :       90949.084496

--- Restarting execution
--- 1_8.gms(117) 5 Mb
--- Reading solution for model CVaRModel
--- Executing after solve: elapsed 0:00:00.236
--- 1_8.gms(120) 6 Mb
*** Status: Normal completion
--- Job 1_8.gms Stop 11/28/19 04:38:59 elapsed 0:00:00.237
